10
-1 34 47 55 39 54 69 2 41 76
83 -1 23 66 79 78 19 67 27 44
33 22 -1 97 54 34 94 33 42 36
64 91 88 -1 60 14 21 16 97 48
38 22 50 45 -1 15 28 7 8 62
90 62 12 19 48 -1 7 26 31 49
84 3 24 28 91 96 -1 73 90 75
29 49 59 14 59 53 50 -1 51 56
32 26 44 44 69 98 17 33 -1 47
36 66 81 91 20 22 8 64 46 -1
